//if not lauch with main.mod, keep this line. Else erase it
opti = 564.567;

V = [
	[0.0, 4.331947696623971, 11.090473875655405, 14.57476636143259, 8.46873308742224, 10.430497441620851],
	[4.331947696623971, 0.0, 14.925061827735038, 14.878096048398453, 6.244480787478807, 14.16207043608562],
	[11.090473875655405, 14.925061827735038, 0.0, 13.53615731984531, 15.29173448658844, 12.150013270137745],
	[14.57476636143259, 14.878096048398453, 13.53615731984531, 0.0, 9.763643024140983, 22.781673448023705],
	[8.46873308742224, 6.244480787478807, 15.29173448658844, 9.763643024140983, 0.0, 18.83750256687994],
	[10.430497441620851, 14.16207043608562, 12.150013270137745, 22.781673448023705, 18.83750256687994, 0.0]
];
